Instance name: /mnt/c/Users/ORG/CLionProjects/uMV-FSTSP/Murray_Chu_2015_test_data/FSTSP/FSTSP_10_customer_problems/20140810T123443v10

drone speed: 0.6 miles/minute
uav non-eligible customer: 4 8 
Printing number of nodes: 11

Gurobi Optimizer version 11.0.0 build v11.0.0rc2 (linux64 - "Ubuntu 22.04.3 LTS")

CPU model: 13th Gen Intel(R) Core(TM) i5-13500, instruction set [SSE2|AVX|AVX2]
Thread count: 10 physical cores, 20 logical processors, using up to 20 threads

Optimize a model with 44651 rows, 1957 columns and 1837624 nonzeros
Model fingerprint: 0x34fd82d0
Variable types: 11 continuous, 1946 integer (1814 binary)
Coefficient statistics:
  Matrix range     [5e-01, 3e+01]
  Objective range  [1e+00, 3e+01]
  Bounds range     [1e+00, 1e+00]
  RHS range        [1e+00, 9e+00]
Found heuristic solution: objective 171.9821981
Presolve removed 26793 rows and 892 columns
Presolve time: 2.37s
Presolved: 17858 rows, 1065 columns, 602873 nonzeros
Variable types: 8 continuous, 1057 integer (1057 binary)
Found heuristic solution: objective 148.7227818
Root relaxation presolved: 17858 rows, 1065 columns, 602873 nonzeros


Root relaxation: objective 4.289556e+01, 2166 iterations, 1.03 seconds (2.05 work units)

    Nodes    |    Current Node    |     Objective Bounds      |     Work
 Expl Unexpl |  Obj  Depth IntInf | Incumbent    BestBd   Gap | It/Node Time

     0     0   42.89556    0  114  148.72278   42.89556  71.2%     -    3s
H    0     0                     115.4516958   42.89556  62.8%     -    3s
H    0     0                     108.0142641   42.89556  60.3%     -    3s
H    0     0                      71.6774676   42.89556  40.2%     -    3s
H    0     0                      67.9650868   43.50390  36.0%     -    5s
     0     0   43.50390    0  126   67.96509   43.50390  36.0%     -    5s
H    0     0                      65.9650868   43.51485  34.0%     -    6s
H    0     0                      61.4547597   43.52627  29.2%     -    7s
     0     0   43.52636    0  151   61.45476   43.52636  29.2%     -    7s
H    0     0                      58.1149932   43.52967  25.1%     -    7s
     0     0   43.52967    0  154   58.11499   43.52967  25.1%     -    7s
     0     0   43.53322    0  173   58.11499   43.53322  25.1%     -    8s
H    0     0                      57.6962530   43.53470  24.5%     -    8s
     0     0   43.57909    0  170   57.69625   43.57909  24.5%     -    8s
     0     0   43.59504    0  168   57.69625   43.59504  24.4%     -    8s
     0     0   43.59504    0  171   57.69625   43.59504  24.4%     -    9s
     0     0   43.59504    0  169   57.69625   43.59504  24.4%     -    9s
H    0     0                      51.9741803   43.59504  16.1%     -    9s
     0     0   43.59504    0  174   51.97418   43.59504  16.1%     -    9s
     0     0   43.59504    0  169   51.97418   43.59504  16.1%     -   10s
H    0     0                      50.3510190   43.59504  13.4%     -   10s
     0     0   43.59504    0  172   50.35102   43.59504  13.4%     -   10s
     0     0   43.59504    0  172   50.35102   43.59504  13.4%     -   10s
H    0     0                      47.9348019   43.59504  9.05%     -   11s
     0     0   43.59504    0  180   47.93480   43.59504  9.05%     -   11s
     0     0   43.59504    0  180   47.93480   43.59504  9.05%     -   11s
     0     0   43.59504    0  180   47.93480   43.59504  9.05%     -   11s
     0     0   43.59504    0  109   47.93480   43.59504  9.05%     -   14s
     0     0   43.59504    0  121   47.93480   43.59504  9.05%     -   15s
H    0     0                      47.1956693   43.59504  7.63%     -   15s
     0     0   43.59504    0  109   47.19567   43.59504  7.63%     -   15s
     0     0   43.59504    0  110   47.19567   43.59504  7.63%     -   15s
     0     0   43.59504    0  112   47.19567   43.59504  7.63%     -   15s
     0     0   43.59504    0  121   47.19567   43.59504  7.63%     -   15s
     0     0   43.60116    0  137   47.19567   43.60116  7.62%     -   15s
     0     0   43.64213    0  121   47.19567   43.64213  7.53%     -   15s
     0     0   43.91968    0  113   47.19567   43.91968  6.94%     -   16s
     0     0   43.93146    0  127   47.19567   43.93146  6.92%     -   16s
     0     0   44.08644    0  131   47.19567   44.08644  6.59%     -   16s
     0     0   44.10509    0  126   47.19567   44.10509  6.55%     -   16s
     0     0   44.21305    0  143   47.19567   44.21305  6.32%     -   16s
     0     0   44.21305    0  143   47.19567   44.21305  6.32%     -   16s
H    0     0                      46.8023806   44.21305  5.53%     -   17s
     0     0   44.22306    0  105   46.80238   44.22306  5.51%     -   18s
     0     0   44.22306    0   77   46.80238   44.22306  5.51%     -   18s
     0     0   44.22306    0   72   46.80238   44.22306  5.51%     -   18s
     0     0   44.22306    0   88   46.80238   44.22306  5.51%     -   18s
     0     0   44.22306    0   82   46.80238   44.22306  5.51%     -   19s
     0     0   44.22306    0   74   46.80238   44.22306  5.51%     -   19s
     0     0   44.22306    0   83   46.80238   44.22306  5.51%     -   19s
     0     0   44.22306    0   76   46.80238   44.22306  5.51%     -   19s
     0     0   44.29584    0   76   46.80238   44.29584  5.36%     -   19s
     0     0   44.55504    0   72   46.80238   44.55504  4.80%     -   19s
     0     0   44.55504    0   74   46.80238   44.55504  4.80%     -   19s
     0     0   44.55504    0   66   46.80238   44.55504  4.80%     -   19s
     0     0   44.68613    0   72   46.80238   44.68613  4.52%     -   19s
     0     0   44.93751    0   38   46.80238   44.93751  3.98%     -   19s
     0     0   44.94939    0   70   46.80238   44.94939  3.96%     -   19s
     0     0   45.39848    0   72   46.80238   45.39848  3.00%     -   19s
     0     0   45.39848    0   72   46.80238   45.39848  3.00%     -   19s
     0     2   45.39848    0   72   46.80238   45.39848  3.00%     -   19s
     1     5   45.39848    1   52   46.80238   45.39848  3.00%   145   20s

Cutting planes:
  Gomory: 5
  Cover: 1
  MIR: 10
  StrongCG: 1
  GUB cover: 2
  Zero half: 5
  RLT: 23

Explored 118 nodes (19222 simplex iterations) in 21.33 seconds (27.95 work units)
Thread count was 20 (of 20 available processors)

Solution count 10: 46.8024 47.1957 47.9348 ... 67.9651

Optimal solution found (tolerance 1.00e-04)
Best objective 4.680238060576e+01, best bound 4.680238060576e+01, gap 0.0000%
Truck arcs: 
0 8 4.27959
1 5 1.92825
1 7 7.49765
4 10 10.5327
5 6 0.968346
6 1 1.9199
7 4 7.34864
8 1 3.32128
10 11 3.51531
Theta:
Theta_2 = 1
Theta_3 = 1
Theta_9 = 1
Drone arcs:
0 2
2 7
3 10
7 3
9 11
10 9
Gamma:
gamma_2_0_8= 1
gamma_2_1_7= 1
gamma_2_8_1= 1
gamma_3_4_10= 1
gamma_3_7_4= 1
gamma_9_1_5= 1
gamma_9_5_6= 1
gamma_9_6_1= 1
gamma_9_10_11= 1
Sigma:
Sigma_1 = 0
Sigma_2 = 0.49074
Sigma_3 = 0
Sigma_4 = 0
Sigma_5 = 0
Sigma_6 = 0
Sigma_7 = 0
Sigma_8 = 0
Sigma_9 = 0
Sigma_10 = 0
Sigma_11 = 0
middle of 2 sortie are: 1 8 
middle of 3 sortie are: 4 
middle of 9 sortie are: 1 5 6 
Objective: 46.8024
Number of sorties: 3
